c PicoSAT SAT Solver Version 959
c Copyright (c) 2006 - 2014 Armin Biere JKU Linz
c gcc -Wall -Wextra -DNDEBUG -O3 -fno-strict-aliasing
c
c using 2 as default phase
c
c parsing <stdin>
c parsed header 'p cnf 200 850'
c initialized 200 variables
c found 850 non trivial clauses
c
c random number generator seed 0
c 
c  seconds     variables   original    learned     agility
c         level        used      conflicts    limit          MB
c 
c s   0.0   0.0   200   0.0   850     0     0     0   0.0   0.0 
c 
c initial reduction limit 1000 clauses
c 
c +   0.0  16.2   200  91.0   850   100   100  1100  10.8   0.0 
c R   0.0  16.2   200  91.0   850   100   100  1100  10.8   0.0 
c +   0.0  15.6   200  99.0   850   221   221  1210  19.4   0.1 
c +   0.0  14.0   200  99.5   850   367   367  1331  24.8   0.1 
c N   0.0  13.7   200  99.5   850   402   402  1331  25.8   0.1 
c +   0.0  12.9   200  99.5   850   543   543  1464  28.1   0.1 
c +   0.0  12.1   200 100.0   850   755   755  1610  31.1   0.1 
c +   0.0  11.5   200 100.0   850  1011  1011  1771  30.1   0.1 
c N   0.0  11.4   200 100.0   850  1209  1209  1771  31.1   0.1 
c +   0.0  11.4   200 100.0   850  1320  1320  1948  31.0   0.1 
c +   0.0  11.1   200 100.0   850  1693  1693  2142  28.6   0.2 
c +   0.0  10.6   200 100.0   850  2144  2144  2356  28.3   0.2 
c +   0.0  10.5   200 100.0   850  2689  1504  2591  29.7   0.2 
c N   0.0  10.6   200 100.0   850  3214  2029  2591  30.6   0.2 
c +   0.0  10.5   200 100.0   850  3348  2163  2850  30.5   0.2 
c 1   0.0  10.5   200 100.0   850  3899  2714  2850  28.3   0.2 
c 
c  seconds     variables   original    learned     agility
c         level        used      conflicts    limit          MB
c 
s SATISFIABLE
v -1 -2 -3 4 5 6 -7 8 9 -10 11 -12 -13 -14 15 -16 -17 18 19 -20 21 -22 23 -24
v 25 -26 27 28 -29 -30 31 32 -33 34 -35 -36 37 -38 39 40 -41 42 43 44 -45 46
v -47 48 -49 50 -51 52 53 54 55 -56 -57 58 -59 60 61 -62 -63 64 -65 -66 -67 68
v -69 70 71 72 73 74 -75 -76 77 -78 -79 -80 -81 82 83 84 -85 86 -87 88 -89 90
v 91 -92 -93 -94 95 -96 97 98 99 100 101 102 103 -104 -105 106 -107 108 -109
v -110 111 -112 -113 -114 -115 -116 -117 -118 -119 -120 -121 122 123 124 -125
v 126 -127 128 129 130 131 132 -133 -134 135 136 -137 138 -139 -140 -141 -142
v -143 -144 145 -146 147 148 149 -150 -151 -152 -153 -154 155 -156 -157 158 159
v -160 -161 162 -163 -164 -165 166 -167 168 -169 170 -171 172 173 174 -175 176
v -177 178 -179 180 -181 -182 -183 184 185 186 187 -188 189 -190 191 -192 -193
v 194 -195 196 197 198 199 -200 0
c
c 0 iterations
c 2 restarts
c 0 failed literals
c 3899 conflicts
c 4558 decisions
c 0 fixed variables
c 44488 learned literals
c 23.8% deleted literals
c 196302 propagations
c 1019659 visits
c 100.0% variables used
c 0.0 seconds in library
c 5.5 megaprops/second
c 28.3 megavisits/second
c probing 0.0 seconds 0%
c 1 simplifications
c 1 reductions
c 0.1 MB recycled
c 0.2 MB maximally allocated
c 0.036000 seconds total run time
